NAME : n60w60.001.722.tour
COMMENT : Length = 722
COMMENT : Found by LKH [Keld Helsgaun] Tue May  2 05:46:14 2017
TYPE : TOUR
DIMENSION : 61
TOUR_SECTION
1
50
27
40
9
17
8
35
47
26
21
20
3
53
34
13
15
54
57
39
30
46
28
38
31
29
48
43
2
41
33
19
23
5
36
12
18
52
22
49
32
45
10
25
6
44
37
59
55
51
16
4
11
60
42
58
56
24
61
14
7
-1
EOF
